pyomo/data/cute/cresc100.ampl.col
d
a
r
v1
w1
t
